Pt C O H 
 1.0000000000000000
     8.4159500000000005    0.0000000000000000    0.0000000000000000
     4.2079500000000003    7.2883800000000001    0.0000000000000000
     0.0000000000000000    0.0000000000000000   38.5242000000000004
  Pt   C   O   H 
  27   1  25  49 
Selective dynamics
Direct
  0.0000000000000000  0.0000000000000000  0.0000000000000000   F   F   F
  0.0000000499999970  0.6666667300000029  0.0000000000000000   F   F   F
  0.0000000000000000  0.3333327300000022  0.0000000000000000   F   F   F
  0.3333330000000032  0.0000000000000000  0.0000000000000000   F   F   F
  0.3333330000000032  0.6666667300000029  0.0000000000000000   F   F   F
  0.3333330000000033  0.3333327300000022  0.0000000000000000   F   F   F
  0.6666669999999968  0.0000000000000000  0.0000000000000000   F   F   F
  0.6666669999999968  0.6666667300000029  0.0000000000000000   F   F   F
  0.6666669999999968  0.3333327300000022  0.0000000000000000   F   F   F
  0.1111110000000011  0.7777777299999968  0.0594565999999972   F   F   F
  0.1111110000000011  0.4444447300000007  0.0594565999999972   F   F   F
  0.1111110000000011  0.1111107300000000  0.0594565999999972   F   F   F
  0.4444439999999972  0.7777777299999968  0.0594565999999972   F   F   F
  0.4444439999999972  0.4444447300000007  0.0594565999999972   F   F   F
  0.4444439999999971  0.1111107300000000  0.0594565999999972   F   F   F
  0.7777779999999977  0.7777777299999968  0.0594565999999972   F   F   F
  0.7777779999999977  0.4444447300000007  0.0594565999999972   F   F   F
  0.7777779999999979  0.1111107300000000  0.0594565999999972   F   F   F
  0.2222220000000021  0.8888887299999979  0.1189132800000010   F   F   F
  0.2222220000000021  0.5555557300000018  0.1189132800000010   F   F   F
  0.2222220000000021  0.2222217300000011  0.1189132800000010   F   F   F
  0.5555560000000029  0.8888887299999979  0.1189132800000010   F   F   F
  0.5555560000000028  0.5555557300000018  0.1189132800000010   F   F   F
  0.5555560000000027  0.2222217300000011  0.1189132800000010   F   F   F
  0.8888889999999989  0.8888887299999979  0.1189132800000010   F   F   F
  0.8888889999999989  0.5555557300000018  0.1189132800000010   F   F   F
  0.8888889999999989  0.2222217300000011  0.1189132800000010   F   F   F
  0.6695089999999978  0.6625117299999985  0.1508332800000005   F   F   F
  0.6752290000000016  0.6605387299999990  0.1848266599999988   F   F   F
  0.6832729999999998  0.0663204299999975  0.3435850799999969   F   F   F
  0.8612400000000023  0.7473697300000026  0.2808094600000004   F   F   F
  0.0215165999999982  0.3923207300000016  0.2149718399999969   F   F   F
  0.3461590000000001  0.7237627299999971  0.3454012799999973   F   F   F
  0.2973730000000003  0.2807117300000002  0.3224540399999967   F   F   F
  0.2755020000000030  0.3095307299999988  0.4373971099999991   F   F   F
  0.1453670000000002  0.1376487300000022  0.2789799000000031   F   F   F
  0.5570680000000010  0.6798467300000013  0.4569334800000037   F   F   F
  0.1960639999999998  0.5376077299999977  0.2536581800000022   F   F   F
  0.7591079999999977  0.0021856099999980  0.2216255000000018   F   F   F
  0.4743459999999971  0.9577847300000002  0.2501938400000014   F   F   F
  0.1654580000000010  0.5815177300000016  0.3792043199999995   F   F   F
  0.9552470000000000  0.4477767300000011  0.3588760199999967   F   F   F
  0.8215339999999998  0.2601377299999967  0.2464475000000022   F   F   F
  0.6675400000000024  0.6124017300000020  0.3128383199999973   F   F   F
  0.5358050000000034  0.8783987300000007  0.3823325299999993   F   F   F
  0.0215006000000031  0.8735827300000025  0.3173708599999969   F   F   F
  0.3272880000000029  0.7420537300000021  0.2114667600000004   T   T   T
  0.2622730000000004  0.9977687299999971  0.4318383900000029   F   F   F
  0.5185170000000028  0.3884237299999995  0.2879914999999968   F   F   F
  0.8410950000000029  0.7524127300000032  0.4188811900000005   F   F   F
  0.8734469999999989  0.2003877300000028  0.3834007299999982   F   F   F
  0.5376490000000018  0.3862797299999983  0.4125521899999995   F   F   F
  0.9778629999999994  0.9421437299999980  0.4404094599999979   F   F   F
  0.5574370000000002  0.6926547300000010  0.1961000700000000   F   F   F
  0.9115340000000032  0.4014167300000011  0.2275859100000019   F   F   F
  0.7638880000000017  0.8222637300000030  0.2646266599999976   F   F   F
  0.1395709999999966  0.4035927299999997  0.4356050999999966   F   F   F
  0.9614759999999976  0.4331657299999989  0.1934492999999975   F   F   F
  0.7901629999999996  0.7012567299999972  0.2945878600000000   F   F   F
  0.2582859999999982  0.2016367299999970  0.4404476599999966   F   F   F
  0.6360740000000007  0.0165760300000031  0.3626414599999990   F   F   F
  0.5664069999999982  0.1464517300000026  0.3331774400000000   F   F   F
  0.2976079999999969  0.6498577300000008  0.3517143600000026   F   F   F
  0.2311529999999991  0.8295587300000022  0.3356582400000008   F   F   F
  0.2149130000000028  0.2520357300000029  0.3083898200000021   F   F   F
  0.2065460000000030  0.3991577299999989  0.3333136700000026   F   F   F
  0.0775256000000013  0.2090297299999975  0.2582079000000022   F   F   F
  0.7720500000000002  0.9081397300000020  0.2050626500000021   F   F   F
  0.3885250000000013  0.9283207300000029  0.2405532900000011   F   F   F
  0.0354633000000035  0.1387737299999969  0.2904353699999973   F   F   F
  0.6325209999999970  0.0289201300000030  0.2299973200000025   F   F   F
  0.3897809999999993  0.0567804300000034  0.2647870799999978   F   F   F
  0.5775769999999979  0.6409737299999989  0.4819273600000001   F   F   F
  0.0673735000000022  0.6226377300000010  0.2642326100000005   F   F   F
  0.1822329999999965  0.4365767299999987  0.2429793399999980   F   F   F
  0.5225319999999982  0.5932787300000015  0.4457791099999965   F   F   F
  0.0787788000000020  0.6953007299999996  0.3906496099999970   F   F   F
  0.0957512000000023  0.5149687299999997  0.3789261300000035   F   F   F
  0.6402810000000018  0.5136117300000009  0.3060999899999999   F   F   F
  0.7110750000000010  0.3016077300000006  0.2608472100000014   F   F   F
  0.2948049999999967  0.6817707299999967  0.2287998899999977   T   T   T
  0.5722990000000010  0.6664487299999990  0.3328839699999975   F   F   F
  0.8153440000000032  0.1629937299999966  0.2333018699999982   F   F   F
  0.2069449999999975  0.8327127299999972  0.2071767699999967   T   T   T
  0.9203139999999976  0.3620277300000012  0.3664119999999969   F   F   F
  0.8655410000000004  0.5040417299999973  0.3428186200000027   F   F   F
  0.4804189999999975  0.8213397299999983  0.3694911899999980   F   F   F
  0.4370839999999987  0.9329657299999994  0.4006154499999965   F   F   F
  0.9000219999999999  0.9184917299999995  0.3295399499999974   F   F   F
  0.9822739999999968  0.8088297299999994  0.3018430999999993   F   F   F
  0.3771660000000026  0.8875857299999979  0.4426044300000029   F   F   F
  0.8273170000000007  0.1439797299999981  0.3689768300000011   F   F   F
  0.4342690000000005  0.4973007299999992  0.4026722799999973   F   F   F
  0.1656699999999987  0.9728317300000029  0.4382488700000025   F   F   F
  0.7595949999999975  0.2640267299999977  0.3959116799999975   F   F   F
  0.4597849999999966  0.3388377300000016  0.4207406800000015   F   F   F
  0.4881110000000035  0.3112917300000007  0.3004814299999978   F   F   F
  0.7293779999999971  0.7811687299999973  0.4032770499999998   F   F   F
  0.7974490000000002  0.7231287299999991  0.4391897499999969   F   F   F
  0.4028849999999977  0.4786287299999969  0.2772604600000008   F   F   F
  0.9246520000000018  0.0275595299999978  0.4215676099999968   F   F   F
  0.9267380000000003  0.8605887300000035  0.4376479200000034   F   F   F
